[[8, 41, 19, 45, 5, 15, 6, 4, 25, 46, 48, 24, 38, 37, 40, 39, 44, 34, 35, 36, 49, 32], [22, 31, 18, 3, 17, 21, 42, 2, 7, 30, 23, 20, 50, 16, 29], [47, 26, 28, 27, 13, 14, 52, 11, 12, 51, 33, 43, 10, 9]]